10
6 61
14 18 50 26 6 46 
61 51 18 78 12 29 
1 62
15 
34 
7 32
4 1 12 10 30 4 50 
12 10 21 31 47 8 80 
3 128
9 43 40 
11 77 49 
7 9
4 12 29 35 25 19 24 
72 2 75 25 50 21 51 
9 22
46 47 42 42 32 18 24 6 7 
73 21 20 14 1 9 44 33 19 
4 28
15 45 34 19 
60 76 74 4 
4 110
21 35 48 19 
72 71 25 37 
7 22
20 41 36 11 36 18 38 
61 14 21 14 70 12 47 
9 149
38 16 23 30 32 17 9 22 16 
28 33 41 45 65 28 44 62 72 
